qbf_easy_train/easy_2274_SAT.qdimacs
p cnf 22 53
a 9 13 6 0
e 1 2 3 4 5 7 8 10 11 12 14 15 16 17 18 19 20 21 22 0
-3 1 0
-3 -2 0
-1 2 3 0
2 -3 -4 0
-2 3 -4 0
2 3 4 0
-2 -3 4 0
-5 3 0
-5 -4 0
-3 4 5 0
7 -6 0
7 -3 0
6 3 -7 0
8 -5 0
8 -7 0
5 7 -8 0
-11 -10 0
-11 10 0
9 11 -12 0
-9 -11 -12 0
9 -11 12 0
-9 11 12 0
-14 -13 0
-14 4 0
13 -4 14 0
-12 14 -15 0
12 -14 -15 0
-12 -14 15 0
12 14 15 0
16 17 -18 0
-16 -17 -18 0
16 -17 18 0
-16 17 18 0
-19 15 0
-19 18 0
-15 -18 19 0
-8 -19 -20 0
8 19 -20 0
-8 19 20 0
8 -19 20 0
-17 -2 -21 0
17 2 -21 0
-17 2 21 0
17 -2 21 0
22 20 0
22 -21 0
-20 21 -22 0
16 -9 21 -15 0
-14 15 12 -13 -16 0
-10 12 2 -18 0
-20 -1 -6 -12 -13 10 16 0
12 5 -19 10 0
22 0
