sat_easy_train/easy_2274_SAT.dimacs
p cnf 111 367
3 1 0
3 2 0
-1 -2 -3 0
4 3 0
4 -1 0
-3 1 -4 0
7 -5 0
7 6 0
5 -6 -7 0
8 -4 0
8 -7 0
4 7 -8 0
-9 5 0
-9 3 0
-5 -3 9 0
-9 -2 -10 0
9 2 -10 0
-9 2 10 0
9 -2 10 0
-11 -8 0
-11 -10 0
8 10 11 0
-14 -6 0
-14 -13 0
6 13 14 0
16 1 0
16 15 0
-1 -15 -16 0
17 14 0
17 16 0
-14 -16 -17 0
-17 -9 -18 0
17 9 -18 0
-17 9 18 0
17 -9 18 0
19 12 0
19 -18 0
-12 18 -19 0
20 11 0
20 19 0
-11 -19 -20 0
22 21 0
22 9 0
-21 -9 -22 0
6 23 -24 0
-6 -23 -24 0
6 -23 24 0
-6 23 24 0
-25 -22 0
-25 24 0
22 -24 25 0
-26 12 0
-26 25 0
-12 -25 26 0
-5 27 -28 0
5 -27 -28 0
-5 -27 28 0
5 27 28 0
-29 13 0
-29 -12 0
-13 12 29 0
-31 30 0
-31 27 0
-30 -27 31 0
31 4 -32 0
-31 -4 -32 0
31 -4 32 0
-31 4 32 0
-29 32 -33 0
29 -32 -33 0
-29 -32 33 0
29 32 33 0
-28 -33 -34 0
28 33 -34 0
-28 33 34 0
28 -33 34 0
-26 -34 -35 0
26 34 -35 0
-26 34 35 0
26 -34 35 0
37 -16 0
37 12 0
16 -12 -37 0
38 -36 0
38 37 0
36 -37 -38 0
15 -5 -39 0
-15 5 -39 0
15 5 39 0
-15 -5 39 0
40 -39 0
40 -23 0
39 23 -40 0
-41 -2 0
-41 23 0
2 -23 41 0
41 27 -42 0
-41 -27 -42 0
41 -27 42 0
-41 27 42 0
44 -42 0
44 43 0
42 -43 -44 0
-45 40 0
-45 44 0
-40 -44 45 0
47 5 0
47 -46 0
-5 46 -47 0
-48 -45 0
-48 -47 0
45 47 48 0
-50 -37 0
-50 -49 0
37 49 50 0
51 48 0
51 50 0
-48 -50 -51 0
-52 -38 0
-52 51 0
38 -51 52 0
35 52 -53 0
-35 -52 -53 0
35 -52 53 0
-35 52 53 0
-54 -20 0
-54 53 0
20 -53 54 0
15 -55 0
-15 -55 0
-56 7 0
-56 -2 0
-7 2 56 0
-57 1 0
-57 13 0
-1 -13 57 0
58 56 0
58 57 0
-56 -57 -58 0
59 -14 0
59 -15 0
14 15 -59 0
59 -3 -60 0
-59 3 -60 0
59 3 60 0
-59 -3 60 0
61 58 0
61 60 0
-58 -60 -61 0
6 42 -62 0
-6 -42 -62 0
6 -42 62 0
-6 42 62 0
-63 -61 0
-63 62 0
61 -62 63 0
64 55 0
64 -63 0
-55 63 -64 0
65 -43 0
65 -14 0
43 14 -65 0
66 15 0
66 21 0
-15 -21 -66 0
-67 -66 0
-67 -5 0
66 5 67 0
68 65 0
68 67 0
-65 -67 -68 0
3 68 -69 0
-3 -68 -69 0
3 -68 69 0
-3 68 69 0
29 37 -70 0
-29 -37 -70 0
29 -37 70 0
-29 37 70 0
-70 33 -71 0
70 -33 -71 0
-70 -33 71 0
70 33 71 0
67 -14 -72 0
-67 14 -72 0
67 14 72 0
-67 -14 72 0
73 -71 0
73 72 0
71 -72 -73 0
74 -69 0
74 -73 0
69 73 -74 0
75 -46 0
75 -18 0
46 18 -75 0
76 22 0
76 43 0
-22 -43 -76 0
-77 75 0
-77 76 0
-75 -76 77 0
74 77 -78 0
-74 -77 -78 0
74 -77 78 0
-74 77 78 0
-46 79 -80 0
46 -79 -80 0
-46 -79 80 0
46 79 80 0
5 -4 -81 0
-5 4 -81 0
5 4 81 0
-5 -4 81 0
-82 80 0
-82 -81 0
-80 81 82 0
83 78 0
83 82 0
-78 -82 -83 0
41 27 -84 0
-41 -27 -84 0
41 -27 84 0
-41 27 84 0
-85 36 0
-85 -23 0
-36 23 85 0
-86 36 0
-86 29 0
-36 -29 86 0
85 -86 -87 0
-85 86 -87 0
85 86 87 0
-85 -86 87 0
-88 84 0
-88 -87 0
-84 87 88 0
2 23 -89 0
-2 -23 -89 0
2 -23 89 0
-2 23 89 0
90 89 0
90 -6 0
-89 6 -90 0
91 90 0
91 59 0
-90 -59 -91 0
66 -24 -92 0
-66 24 -92 0
66 24 92 0
-66 -24 92 0
59 92 -93 0
-59 -92 -93 0
59 -92 93 0
-59 92 93 0
-16 -93 -94 0
16 93 -94 0
-16 93 94 0
16 -93 94 0
-95 -17 0
-95 -13 0
17 13 95 0
96 -94 0
96 -95 0
94 95 -96 0
91 96 -97 0
-91 -96 -97 0
91 -96 97 0
-91 96 97 0
98 -88 0
98 -97 0
88 97 -98 0
6 -16 -99 0
-6 16 -99 0
6 16 99 0
-6 -16 99 0
-98 -99 -100 0
98 99 -100 0
-98 99 100 0
98 -99 100 0
-83 100 -101 0
83 -100 -101 0
-83 -100 101 0
83 100 101 0
102 -64 0
102 -101 0
64 101 -102 0
-4 -67 -103 0
4 67 -103 0
-4 67 103 0
4 -67 103 0
-103 -14 -104 0
103 14 -104 0
-103 14 104 0
103 -14 104 0
105 -104 0
105 13 0
104 -13 -105 0
-106 105 0
-106 7 0
-105 -7 106 0
106 -42 -107 0
-106 42 -107 0
106 42 107 0
-106 -42 107 0
108 -29 0
108 -37 0
29 37 -108 0
-109 107 0
-109 -108 0
-107 108 109 0
110 -102 0
110 109 0
102 -109 -110 0
54 110 -111 0
-54 -110 -111 0
54 -110 111 0
-54 110 111 0
63 66 99 -89 -9 -17 0
-29 58 -5 -1 -64 -100 0
80 -27 48 -41 0
56 -34 93 85 -27 -95 0
-79 24 -27 0
-31 85 64 0
52 -77 80 0
85 -72 -106 -3 -45 0
30 43 -39 0
2 -90 -55 0
110 -80 -19 0
17 89 -5 76 -1 68 0
87 12 -62 -10 85 0
72 -59 -8 109 39 43 0
-76 2 -103 54 52 0
-56 64 0
-35 12 -29 -84 -75 0
97 -30 0
-16 95 0
11 -4 100 -71 0
-48 -72 0
-54 42 -69 0
-106 -17 62 -98 -72 -24 0
9 29 81 0
-45 -94 15 0
-62 54 -63 0
-103 21 0
6 -14 10 0
-61 80 25 7 0
-40 13 45 0
-5 29 -69 -103 12 0
-21 62 17 -31 28 0
-55 51 0
38 73 19 -13 0
83 -94 -12 -30 23 0
64 -30 -106 0
2 8 -107 0
-39 108 5 0
70 17 0
-33 -106 18 42 0
-59 42 87 4 -28 51 0
54 -74 -27 59 7 94 0
1 -93 0
-93 34 0
72 50 -66 -65 19 0
-13 6 70 93 82 0
60 -92 -111 86 80 0
94 -16 0
111 0
